&CONTROL
  calculation = 'scf'
  etot_conv_thr =   1.4000000000d-04
  forc_conv_thr =   1.0000000000d-04
  outdir = './out/'
  prefix = 'aiida'
  pseudo_dir = './pseudo/'
  tprnfor = .true.
  tstress = .true.
  verbosity = 'high'
/
&SYSTEM
  degauss =   2.0000000000d-02
  ecutrho =   7.8000000000d+02
  ecutwfc =   6.5000000000d+01
  ibrav = 0
  nat = 14
  nosym = .false.
  ntyp = 3
  occupations = 'smearing'
  smearing = 'cold'
/
&ELECTRONS
  conv_thr =   2.8000000000d-09
  electron_maxstep = 80
  mixing_beta =   4.0000000000d-01
/
ATOMIC_SPECIES
Cr     51.9961 cr_pbesol_v1.5.uspp.F.UPF
Mn     54.938045 mn_pbesol_v1.5.uspp.F.UPF
O      15.9994 O.pbesol-n-kjpaw_psl.0.1.UPF
ATOMIC_POSITIONS crystal
Cr           0.3750000000       0.3750000000       0.3750000000
Cr           0.3750000000       0.3750000000       0.8750000000
Cr           0.8750000000       0.3750000000       0.3750000000
Cr           0.3750000000       0.8750000000       0.3750000000
Mn           0.0000000000       0.0000000000       0.0000000000
Mn           0.7500000000       0.7500000000       0.7500000000
O            0.6112819600       0.1661541200       0.6112819600
O            0.1387180400       0.1387180400       0.1387180400
O            0.6112819600       0.6112819600       0.1661541200
O            0.5838458800       0.1387180400       0.1387180400
O            0.1661541200       0.6112819600       0.6112819600
O            0.1387180400       0.1387180400       0.5838458800
O            0.6112819600       0.6112819600       0.6112819600
O            0.1387180400       0.5838458800       0.1387180400
K_POINTS automatic
9 9 9 0 0 0
CELL_PARAMETERS angstrom
     -4.2272514800      -4.2272514800       0.0000000000
     -4.2272514800       0.0000000000      -4.2272514800
     -0.0000000000      -4.2272514800      -4.2272514800
