&CONTROL
  calculation = 'scf'
  etot_conv_thr =   4.0000000000d-05
  forc_conv_thr =   1.0000000000d-04
  outdir = './out/'
  prefix = 'aiida'
  pseudo_dir = './pseudo/'
  tprnfor = .true.
  tstress = .true.
  verbosity = 'high'
/
&SYSTEM
  degauss =   2.0000000000d-02
  ecutrho =   4.0000000000d+02
  ecutwfc =   5.0000000000d+01
  ibrav = 0
  nat = 4
  nosym = .false.
  ntyp = 2
  occupations = 'smearing'
  smearing = 'cold'
/
&ELECTRONS
  conv_thr =   8.0000000000d-10
  electron_maxstep = 80
  mixing_beta =   4.0000000000d-01
/
ATOMIC_SPECIES
O      15.9994 O.pbesol-n-kjpaw_psl.0.1.UPF
Zn     65.38 zn_pbesol_v1.uspp.F.UPF
ATOMIC_POSITIONS crystal
Zn           0.6666666667       0.3333333333       0.9994083000
Zn           0.3333333333       0.6666666667       0.4994083000
O            0.6666666667       0.3333333333       0.6202817000
O            0.3333333333       0.6666666667       0.1202817000
K_POINTS automatic
15 15 9 0 0 0
CELL_PARAMETERS angstrom
     -1.6186755100      -2.8036282243      -0.0000000000
     -1.6186755100       2.8036282243       0.0000000000
      0.0000000000       0.0000000000      -5.2220613000
